p cnf 965 2478
51 -698 -1 0
-51 698 0
-51 1 0
52 -51 -699 0
-52 51 0
-52 699 0
53 -5 -700 0
-53 5 0
-53 700 0
54 -53 -701 0
-54 53 0
-54 701 0
55 -702 -703 0
-55 702 0
-55 703 0
56 -8 -704 0
-56 8 0
-56 704 0
57 -56 -9 0
-57 56 0
-57 9 0
58 -705 -55 0
-58 705 0
-58 55 0
59 -11 -706 0
-59 11 0
-59 706 0
60 -59 -707 0
-60 59 0
-60 707 0
61 -708 -58 0
-61 708 0
-61 58 0
62 -14 -709 0
-62 14 0
-62 709 0
63 -62 -710 0
-63 62 0
-63 710 0
64 -711 -61 0
-64 711 0
-64 61 0
65 -712 -4 0
-65 712 0
-65 4 0
66 -65 -17 0
-66 65 0
-66 17 0
67 -713 -64 0
-67 713 0
-67 64 0
68 -714 -701 0
-68 714 0
-68 701 0
69 -68 -715 0
-69 68 0
-69 715 0
70 -716 -67 0
-70 716 0
-70 67 0
71 -714 -717 0
-71 714 0
-71 717 0
72 -71 -15 0
-72 71 0
-72 15 0
73 -718 -70 0
-73 718 0
-73 70 0
74 -21 -719 0
-74 21 0
-74 719 0
75 -74 -720 0
-75 74 0
-75 720 0
76 -721 -73 0
-76 721 0
-76 73 0
77 -23 -13 0
-77 23 0
-77 13 0
78 -77 -722 0
-78 77 0
-78 722 0
79 -723 -76 0
-79 723 0
-79 76 0
80 -724 -725 0
-80 724 0
-80 725 0
81 -80 -26 0
-81 80 0
-81 26 0
82 -726 -79 0
-82 726 0
-82 79 0
83 -727 -712 0
-83 727 0
-83 712 0
84 -83 -28 0
-84 83 0
-84 28 0
85 -728 -82 0
-85 728 0
-85 82 0
86 -729 -29 0
-86 729 0
-86 29 0
87 -86 -25 0
-87 86 0
-87 25 0
88 -730 -85 0
-88 730 0
-88 85 0
89 -31 -727 0
-89 31 0
-89 727 0
90 -89 -3 0
-90 89 0
-90 3 0
91 -731 -88 0
-91 731 0
-91 88 0
92 -32 -23 0
-92 32 0
-92 23 0
93 -92 -732 0
-93 92 0
-93 732 0
94 -733 -91 0
-94 733 0
-94 91 0
95 -34 -28 0
-95 34 0
-95 28 0
96 -95 -33 0
-96 95 0
-96 33 0
97 -734 -94 0
-97 734 0
-97 94 0
98 -735 -25 0
-98 735 0
-98 25 0
99 -98 -736 0
-99 98 0
-99 736 0
100 -737 -97 0
-100 737 0
-100 97 0
101 -738 -739 0
-101 738 0
-101 739 0
102 -101 -6 0
-102 101 0
-102 6 0
103 -740 -100 0
-103 740 0
-103 100 0
104 -741 -1 0
-104 741 0
-104 1 0
105 -104 -38 0
-105 104 0
-105 38 0
106 -742 -103 0
-106 742 0
-106 103 0
107 -39 -706 0
-107 39 0
-107 706 0
108 -107 -37 0
-108 107 0
-108 37 0
109 -743 -106 0
-109 743 0
-109 106 0
110 -744 -727 0
-110 744 0
-110 727 0
111 -110 -699 0
-111 110 0
-111 699 0
112 -745 -109 0
-112 745 0
-112 109 0
113 -41 -714 0
-113 41 0
-113 714 0
114 -113 -17 0
-114 113 0
-114 17 0
115 -746 -112 0
-115 746 0
-115 112 0
116 -729 -712 0
-116 729 0
-116 712 0
117 -116 -28 0
-117 116 0
-117 28 0
118 -747 -115 0
-118 747 0
-118 115 0
119 -35 -748 0
-119 35 0
-119 748 0
120 -119 -749 0
-120 119 0
-120 749 0
121 -750 -118 0
-121 750 0
-121 118 0
122 -16 -4 0
-122 16 0
-122 4 0
123 -122 -27 0
-123 122 0
-123 27 0
124 -751 -121 0
-124 751 0
-124 121 0
125 -18 -10 0
-125 18 0
-125 10 0
126 -125 -5 0
-126 125 0
-126 5 0
127 -752 -124 0
-127 752 0
-127 124 0
128 -26 -748 0
-128 26 0
-128 748 0
129 -128 -699 0
-129 128 0
-129 699 0
130 -753 -127 0
-130 753 0
-130 127 0
131 -754 -709 0
-131 754 0
-131 709 0
132 -131 -42 0
-132 131 0
-132 42 0
133 -755 -130 0
-133 755 0
-133 130 0
134 -738 -26 0
-134 738 0
-134 26 0
135 -134 -43 0
-135 134 0
-135 43 0
136 -756 -133 0
-136 756 0
-136 133 0
137 -757 -16 0
-137 757 0
-137 16 0
138 -137 -758 0
-138 137 0
-138 758 0
139 -759 -136 0
-139 759 0
-139 136 0
140 -44 -712 0
-140 44 0
-140 712 0
141 -140 -34 0
-141 140 0
-141 34 0
142 -760 -139 0
-142 760 0
-142 139 0
143 -735 -16 0
-143 735 0
-143 16 0
144 -143 -748 0
-144 143 0
-144 748 0
145 -761 -142 0
-145 761 0
-145 142 0
146 -17 -12 0
-146 17 0
-146 12 0
147 -146 -3 0
-147 146 0
-147 3 0
148 -762 -145 0
-148 762 0
-148 145 0
149 -763 -5 0
-149 763 0
-149 5 0
150 -149 -12 0
-150 149 0
-150 12 0
151 -764 -148 0
-151 764 0
-151 148 0
152 -765 -709 0
-152 765 0
-152 709 0
153 -152 -37 0
-153 152 0
-153 37 0
154 -766 -151 0
-154 766 0
-154 151 0
155 -24 -701 0
-155 24 0
-155 701 0
156 -155 -767 0
-156 155 0
-156 767 0
157 -768 -154 0
-157 768 0
-157 154 0
158 -732 -23 0
-158 732 0
-158 23 0
159 -158 -699 0
-159 158 0
-159 699 0
160 -769 -157 0
-160 769 0
-160 157 0
161 -744 -25 0
-161 744 0
-161 25 0
162 -161 -33 0
-162 161 0
-162 33 0
163 -770 -160 0
-163 770 0
-163 160 0
164 -36 -1 0
-164 36 0
-164 1 0
165 -164 -37 0
-165 164 0
-165 37 0
166 -771 -163 0
-166 771 0
-166 163 0
167 -772 -36 0
-167 772 0
-167 36 0
168 -167 -732 0
-168 167 0
-168 732 0
169 -773 -166 0
-169 773 0
-169 166 0
170 -774 -28 0
-170 774 0
-170 28 0
171 -170 -15 0
-171 170 0
-171 15 0
172 -775 -169 0
-172 775 0
-172 169 0
173 -719 -10 0
-173 719 0
-173 10 0
174 -173 -741 0
-174 173 0
-174 741 0
175 -776 -172 0
-175 776 0
-175 172 0
176 -44 -706 0
-176 44 0
-176 706 0
177 -176 -34 0
-177 176 0
-177 34 0
178 -777 -175 0
-178 777 0
-178 175 0
179 -758 -717 0
-179 758 0
-179 717 0
180 -179 -37 0
-180 179 0
-180 37 0
181 -778 -178 0
-181 778 0
-181 178 0
182 -47 -8 0
-182 47 0
-182 8 0
183 -182 -722 0
-183 182 0
-183 722 0
184 -779 -181 0
-184 779 0
-184 181 0
185 -780 -22 0
-185 780 0
-185 22 0
186 -185 -701 0
-186 185 0
-186 701 0
187 -781 -184 0
-187 781 0
-187 184 0
188 -35 -729 0
-188 35 0
-188 729 0
189 -188 -8 0
-189 188 0
-189 8 0
190 -782 -187 0
-190 782 0
-190 187 0
191 -783 -784 0
-191 783 0
-191 784 0
192 -191 -46 0
-192 191 0
-192 46 0
193 -785 -190 0
-193 785 0
-193 190 0
194 -783 -18 0
-194 783 0
-194 18 0
195 -194 -48 0
-195 194 0
-195 48 0
196 -786 -193 0
-196 786 0
-196 193 0
197 -739 -5 0
-197 739 0
-197 5 0
198 -197 -22 0
-198 197 0
-198 22 0
199 -787 -196 0
-199 787 0
-199 196 0
200 -49 -31 0
-200 49 0
-200 31 0
201 -200 -732 0
-201 200 0
-201 732 0
202 -788 -199 0
-202 788 0
-202 199 0
203 -767 -789 0
-203 767 0
-203 789 0
204 -203 -3 0
-204 203 0
-204 3 0
205 -790 -202 0
-205 790 0
-205 202 0
206 -791 -706 0
-206 791 0
-206 706 0
207 -206 -732 0
-207 206 0
-207 732 0
208 -792 -205 0
-208 792 0
-208 205 0
209 -13 -7 0
-209 13 0
-209 7 0
210 -209 -793 0
-210 209 0
-210 793 0
211 -794 -208 0
-211 794 0
-211 208 0
212 -39 -739 0
-212 39 0
-212 739 0
213 -212 -720 0
-213 212 0
-213 720 0
214 -795 -211 0
-214 795 0
-214 211 0
215 -28 -784 0
-215 28 0
-215 784 0
216 -215 -15 0
-216 215 0
-216 15 0
217 -796 -214 0
-217 796 0
-217 214 0
218 -13 -698 0
-218 13 0
-218 698 0
219 -218 -4 0
-219 218 0
-219 4 0
220 -797 -217 0
-220 797 0
-220 217 0
221 -24 -23 0
-221 24 0
-221 23 0
222 -221 -37 0
-222 221 0
-222 37 0
223 -798 -220 0
-223 798 0
-223 220 0
224 -31 -4 0
-224 31 0
-224 4 0
225 -224 -43 0
-225 224 0
-225 43 0
226 -799 -223 0
-226 799 0
-226 223 0
227 -23 -800 0
-227 23 0
-227 800 0
228 -227 -801 0
-228 227 0
-228 801 0
229 -802 -226 0
-229 802 0
-229 226 0
230 -780 -36 0
-230 780 0
-230 36 0
231 -230 -774 0
-231 230 0
-231 774 0
232 -803 -229 0
-232 803 0
-232 229 0
233 -40 -800 0
-233 40 0
-233 800 0
234 -233 -804 0
-234 233 0
-234 804 0
235 -805 -232 0
-235 805 0
-235 232 0
236 -744 -774 0
-236 744 0
-236 774 0
237 -236 -715 0
-237 236 0
-237 715 0
238 -806 -235 0
-238 806 0
-238 235 0
239 -28 -16 0
-239 28 0
-239 16 0
240 -239 -12 0
-240 239 0
-240 12 0
241 -807 -238 0
-241 807 0
-241 238 0
242 -780 -27 0
-242 780 0
-242 27 0
243 -242 -767 0
-243 242 0
-243 767 0
244 -808 -241 0
-244 808 0
-244 241 0
245 -754 -748 0
-245 754 0
-245 748 0
246 -245 -8 0
-246 245 0
-246 8 0
247 -809 -244 0
-247 809 0
-247 244 0
248 -23 -2 0
-248 23 0
-248 2 0
249 -248 -16 0
-249 248 0
-249 16 0
250 -810 -247 0
-250 810 0
-250 247 0
251 -765 -5 0
-251 765 0
-251 5 0
252 -251 -811 0
-252 251 0
-252 811 0
253 -812 -250 0
-253 812 0
-253 250 0
254 -813 -763 0
-254 813 0
-254 763 0
255 -254 -43 0
-255 254 0
-255 43 0
256 -814 -253 0
-256 814 0
-256 253 0
257 -38 -20 0
-257 38 0
-257 20 0
258 -257 -722 0
-258 257 0
-258 722 0
259 -815 -256 0
-259 815 0
-259 256 0
260 -24 -15 0
-260 24 0
-260 15 0
261 -260 -19 0
-261 260 0
-261 19 0
262 -816 -259 0
-262 816 0
-262 259 0
263 -35 -732 0
-263 35 0
-263 732 0
264 -263 -707 0
-264 263 0
-264 707 0
265 -817 -262 0
-265 817 0
-265 262 0
266 -772 -735 0
-266 772 0
-266 735 0
267 -266 -38 0
-267 266 0
-267 38 0
268 -818 -265 0
-268 818 0
-268 265 0
269 -48 -29 0
-269 48 0
-269 29 0
270 -269 -722 0
-270 269 0
-270 722 0
271 -819 -268 0
-271 819 0
-271 268 0
272 -24 -811 0
-272 24 0
-272 811 0
273 -272 -17 0
-273 272 0
-273 17 0
274 -820 -271 0
-274 820 0
-274 271 0
275 -22 -18 0
-275 22 0
-275 18 0
276 -275 -9 0
-276 275 0
-276 9 0
277 -821 -274 0
-277 821 0
-277 274 0
278 -28 -712 0
-278 28 0
-278 712 0
279 -278 -749 0
-279 278 0
-279 749 0
280 -822 -277 0
-280 822 0
-280 277 0
281 -727 -14 0
-281 727 0
-281 14 0
282 -281 -701 0
-282 281 0
-282 701 0
283 -823 -280 0
-283 823 0
-283 280 0
284 -39 -20 0
-284 39 0
-284 20 0
285 -284 -791 0
-285 284 0
-285 791 0
286 -824 -283 0
-286 824 0
-286 283 0
287 -41 -765 0
-287 41 0
-287 765 0
288 -287 -774 0
-288 287 0
-288 774 0
289 -825 -286 0
-289 825 0
-289 286 0
290 -772 -15 0
-290 772 0
-290 15 0
291 -290 -9 0
-291 290 0
-291 9 0
292 -826 -289 0
-292 826 0
-292 289 0
293 -50 -801 0
-293 50 0
-293 801 0
294 -293 -48 0
-294 293 0
-294 48 0
295 -827 -292 0
-295 827 0
-295 292 0
296 -41 -5 0
-296 41 0
-296 5 0
297 -296 -813 0
-297 296 0
-297 813 0
298 -828 -295 0
-298 828 0
-298 295 0
299 -20 -714 0
-299 20 0
-299 714 0
300 -299 -21 0
-300 299 0
-300 21 0
301 -829 -298 0
-301 829 0
-301 298 0
302 -735 -765 0
-302 735 0
-302 765 0
303 -302 -5 0
-303 302 0
-303 5 0
304 -830 -301 0
-304 830 0
-304 301 0
305 -757 -18 0
-305 757 0
-305 18 0
306 -305 -11 0
-306 305 0
-306 11 0
307 -831 -304 0
-307 831 0
-307 304 0
308 -739 -704 0
-308 739 0
-308 704 0
309 -308 -791 0
-309 308 0
-309 791 0
310 -832 -307 0
-310 832 0
-310 307 0
311 -729 -28 0
-311 729 0
-311 28 0
312 -311 -722 0
-312 311 0
-312 722 0
313 -833 -310 0
-313 833 0
-313 310 0
314 -33 -2 0
-314 33 0
-314 2 0
315 -314 -43 0
-315 314 0
-315 43 0
316 -834 -313 0
-316 834 0
-316 313 0
317 -719 -706 0
-317 719 0
-317 706 0
318 -317 -31 0
-318 317 0
-318 31 0
319 -835 -316 0
-319 835 0
-319 316 0
320 -42 -774 0
-320 42 0
-320 774 0
321 -320 -28 0
-321 320 0
-321 28 0
322 -836 -319 0
-322 836 0
-322 319 0
323 -735 -729 0
-323 735 0
-323 729 0
324 -323 -17 0
-324 323 0
-324 17 0
325 -837 -322 0
-325 837 0
-325 322 0
326 -47 -7 0
-326 47 0
-326 7 0
327 -326 -34 0
-327 326 0
-327 34 0
328 -838 -325 0
-328 838 0
-328 325 0
329 -29 -754 0
-329 29 0
-329 754 0
330 -329 -774 0
-330 329 0
-330 774 0
331 -839 -328 0
-331 839 0
-331 328 0
332 -23 -21 0
-332 23 0
-332 21 0
333 -332 -732 0
-333 332 0
-333 732 0
334 -840 -331 0
-334 840 0
-334 331 0
335 -791 -789 0
-335 791 0
-335 789 0
336 -335 -15 0
-336 335 0
-336 15 0
337 -841 -334 0
-337 841 0
-337 334 0
338 -41 -2 0
-338 41 0
-338 2 0
339 -338 -842 0
-339 338 0
-339 842 0
340 -843 -337 0
-340 843 0
-340 337 0
341 -31 -811 0
-341 31 0
-341 811 0
342 -341 -804 0
-342 341 0
-342 804 0
343 -844 -340 0
-343 844 0
-343 340 0
344 -36 -720 0
-344 36 0
-344 720 0
345 -344 -699 0
-345 344 0
-345 699 0
346 -845 -343 0
-346 845 0
-346 343 0
347 -42 -717 0
-347 42 0
-347 717 0
348 -347 -46 0
-348 347 0
-348 46 0
349 -846 -346 0
-349 846 0
-349 346 0
350 -31 -24 0
-350 31 0
-350 24 0
351 -350 -49 0
-351 350 0
-351 49 0
352 -847 -349 0
-352 847 0
-352 349 0
353 -37 -784 0
-353 37 0
-353 784 0
354 -353 -749 0
-354 353 0
-354 749 0
355 -848 -352 0
-355 848 0
-355 352 0
356 -47 -701 0
-356 47 0
-356 701 0
357 -356 -842 0
-357 356 0
-357 842 0
358 -849 -355 0
-358 849 0
-358 355 0
359 -44 -800 0
-359 44 0
-359 800 0
360 -359 -3 0
-360 359 0
-360 3 0
361 -850 -358 0
-361 850 0
-361 358 0
362 -793 -37 0
-362 793 0
-362 37 0
363 -362 -767 0
-363 362 0
-363 767 0
364 -851 -361 0
-364 851 0
-364 361 0
365 -16 -704 0
-365 16 0
-365 704 0
366 -365 -811 0
-366 365 0
-366 811 0
367 -852 -364 0
-367 852 0
-367 364 0
368 -744 -698 0
-368 744 0
-368 698 0
369 -368 -722 0
-369 368 0
-369 722 0
370 -853 -367 0
-370 853 0
-370 367 0
371 -323 -699 0
-371 323 0
-371 699 0
372 -854 -370 0
-372 854 0
-372 370 0
373 -739 -20 0
-373 739 0
-373 20 0
374 -373 -47 0
-374 373 0
-374 47 0
375 -855 -372 0
-375 855 0
-375 372 0
376 -789 -17 0
-376 789 0
-376 17 0
377 -376 -38 0
-377 376 0
-377 38 0
378 -856 -375 0
-378 856 0
-378 375 0
379 -23 -16 0
-379 23 0
-379 16 0
380 -379 -813 0
-380 379 0
-380 813 0
381 -857 -378 0
-381 857 0
-381 378 0
382 -32 -712 0
-382 32 0
-382 712 0
383 -382 -701 0
-383 382 0
-383 701 0
384 -858 -381 0
-384 858 0
-384 381 0
385 -40 -8 0
-385 40 0
-385 8 0
386 -385 -46 0
-386 385 0
-386 46 0
387 -859 -384 0
-387 859 0
-387 384 0
388 -772 -719 0
-388 772 0
-388 719 0
389 -388 -6 0
-389 388 0
-389 6 0
390 -860 -387 0
-390 860 0
-390 387 0
391 -729 -13 0
-391 729 0
-391 13 0
392 -391 -811 0
-392 391 0
-392 811 0
393 -861 -390 0
-393 861 0
-393 390 0
394 -36 -701 0
-394 36 0
-394 701 0
395 -394 -33 0
-395 394 0
-395 33 0
396 -862 -393 0
-396 862 0
-396 393 0
397 -42 -8 0
-397 42 0
-397 8 0
398 -397 -789 0
-398 397 0
-398 789 0
399 -863 -396 0
-399 863 0
-399 396 0
400 -31 -1 0
-400 31 0
-400 1 0
401 -400 -36 0
-401 400 0
-401 36 0
402 -864 -399 0
-402 864 0
-402 399 0
403 -865 -701 0
-403 865 0
-403 701 0
404 -403 -842 0
-404 403 0
-404 842 0
405 -866 -402 0
-405 866 0
-405 402 0
406 -813 -704 0
-406 813 0
-406 704 0
407 -406 -715 0
-407 406 0
-407 715 0
408 -867 -405 0
-408 867 0
-408 405 0
409 -784 -698 0
-409 784 0
-409 698 0
410 -409 -727 0
-410 409 0
-410 727 0
411 -868 -408 0
-411 868 0
-411 408 0
412 -47 -31 0
-412 47 0
-412 31 0
413 -412 -727 0
-413 412 0
-413 727 0
414 -869 -411 0
-414 869 0
-414 411 0
415 -34 -700 0
-415 34 0
-415 700 0
416 -415 -37 0
-416 415 0
-416 37 0
417 -870 -414 0
-417 870 0
-417 414 0
418 -45 -36 0
-418 45 0
-418 36 0
419 -418 -19 0
-419 418 0
-419 19 0
420 -871 -417 0
-420 871 0
-420 417 0
421 -13 -706 0
-421 13 0
-421 706 0
422 -421 -699 0
-422 421 0
-422 699 0
423 -872 -420 0
-423 872 0
-423 420 0
424 -735 -732 0
-424 735 0
-424 732 0
425 -424 -715 0
-425 424 0
-425 715 0
426 -873 -423 0
-426 873 0
-426 423 0
427 -40 -717 0
-427 40 0
-427 717 0
428 -427 -12 0
-428 427 0
-428 12 0
429 -874 -426 0
-429 874 0
-429 426 0
430 -757 -4 0
-430 757 0
-430 4 0
431 -430 -736 0
-431 430 0
-431 736 0
432 -875 -429 0
-432 875 0
-432 429 0
433 -727 -704 0
-433 727 0
-433 704 0
434 -433 -804 0
-434 433 0
-434 804 0
435 -876 -432 0
-435 876 0
-435 432 0
436 -39 -765 0
-436 39 0
-436 765 0
437 -436 -700 0
-437 436 0
-437 700 0
438 -877 -435 0
-438 877 0
-438 435 0
439 -741 -16 0
-439 741 0
-439 16 0
440 -439 -722 0
-440 439 0
-440 722 0
441 -878 -438 0
-441 878 0
-441 438 0
442 -32 -4 0
-442 32 0
-442 4 0
443 -442 -12 0
-443 442 0
-443 12 0
444 -879 -441 0
-444 879 0
-444 441 0
445 -765 -719 0
-445 765 0
-445 719 0
446 -445 -724 0
-446 445 0
-446 724 0
447 -880 -444 0
-447 880 0
-447 444 0
448 -25 -748 0
-448 25 0
-448 748 0
449 -448 -49 0
-449 448 0
-449 49 0
450 -881 -447 0
-450 881 0
-450 447 0
451 -40 -701 0
-451 40 0
-451 701 0
452 -451 -715 0
-452 451 0
-452 715 0
453 -882 -450 0
-453 882 0
-453 450 0
454 -37 -725 0
-454 37 0
-454 725 0
455 -454 -26 0
-455 454 0
-455 26 0
456 -883 -453 0
-456 883 0
-456 453 0
457 -39 -10 0
-457 39 0
-457 10 0
458 -457 -793 0
-458 457 0
-458 793 0
459 -884 -456 0
-459 884 0
-459 456 0
460 -719 -18 0
-460 719 0
-460 18 0
461 -460 -40 0
-461 460 0
-461 40 0
462 -885 -459 0
-462 885 0
-462 459 0
463 -729 -748 0
-463 729 0
-463 748 0
464 -463 -34 0
-464 463 0
-464 34 0
465 -886 -462 0
-465 886 0
-465 462 0
466 -36 -765 0
-466 36 0
-466 765 0
467 -466 -46 0
-467 466 0
-467 46 0
468 -887 -465 0
-468 887 0
-468 465 0
469 -13 -800 0
-469 13 0
-469 800 0
470 -469 -26 0
-470 469 0
-470 26 0
471 -888 -468 0
-471 888 0
-471 468 0
472 -110 -9 0
-472 110 0
-472 9 0
473 -889 -471 0
-473 889 0
-473 471 0
474 -813 -793 0
-474 813 0
-474 793 0
475 -474 -732 0
-475 474 0
-475 732 0
476 -890 -473 0
-476 890 0
-476 473 0
477 -41 -774 0
-477 41 0
-477 774 0
478 -477 -842 0
-478 477 0
-478 842 0
479 -891 -476 0
-479 891 0
-479 476 0
480 -34 -18 0
-480 34 0
-480 18 0
481 -480 -804 0
-481 480 0
-481 804 0
482 -892 -479 0
-482 892 0
-482 479 0
483 -46 -21 0
-483 46 0
-483 21 0
484 -483 -865 0
-484 483 0
-484 865 0
485 -893 -482 0
-485 893 0
-485 482 0
486 -42 -23 0
-486 42 0
-486 23 0
487 -486 -11 0
-487 486 0
-487 11 0
488 -894 -485 0
-488 894 0
-488 485 0
489 -131 -712 0
-489 131 0
-489 712 0
490 -895 -488 0
-490 895 0
-490 488 0
491 -41 -40 0
-491 41 0
-491 40 0
492 -491 -701 0
-492 491 0
-492 701 0
493 -896 -490 0
-493 896 0
-493 490 0
494 -763 -21 0
-494 763 0
-494 21 0
495 -494 -34 0
-495 494 0
-495 34 0
496 -897 -493 0
-496 897 0
-496 493 0
497 -44 -40 0
-497 44 0
-497 40 0
498 -497 -43 0
-498 497 0
-498 43 0
499 -898 -496 0
-499 898 0
-499 496 0
500 -44 -811 0
-500 44 0
-500 811 0
501 -500 -789 0
-501 500 0
-501 789 0
502 -899 -499 0
-502 899 0
-502 499 0
503 -749 -27 0
-503 749 0
-503 27 0
504 -503 -715 0
-504 503 0
-504 715 0
505 -900 -502 0
-505 900 0
-505 502 0
506 -724 -741 0
-506 724 0
-506 741 0
507 -506 -28 0
-507 506 0
-507 28 0
508 -901 -505 0
-508 901 0
-508 505 0
509 -758 -23 0
-509 758 0
-509 23 0
510 -509 -11 0
-510 509 0
-510 11 0
511 -902 -508 0
-511 902 0
-511 508 0
512 -738 -28 0
-512 738 0
-512 28 0
513 -512 -707 0
-513 512 0
-513 707 0
514 -903 -511 0
-514 903 0
-514 511 0
515 -801 -25 0
-515 801 0
-515 25 0
516 -515 -2 0
-516 515 0
-516 2 0
517 -904 -514 0
-517 904 0
-517 514 0
518 -20 -704 0
-518 20 0
-518 704 0
519 -518 -699 0
-519 518 0
-519 699 0
520 -905 -517 0
-520 905 0
-520 517 0
521 -31 -800 0
-521 31 0
-521 800 0
522 -521 -722 0
-522 521 0
-522 722 0
523 -906 -520 0
-523 906 0
-523 520 0
524 -865 -15 0
-524 865 0
-524 15 0
525 -524 -9 0
-525 524 0
-525 9 0
526 -907 -523 0
-526 907 0
-526 523 0
527 -725 -16 0
-527 725 0
-527 16 0
528 -527 -811 0
-528 527 0
-528 811 0
529 -908 -526 0
-529 908 0
-529 526 0
530 -47 -39 0
-530 47 0
-530 39 0
531 -530 -21 0
-531 530 0
-531 21 0
532 -909 -529 0
-532 909 0
-532 529 0
533 -44 -28 0
-533 44 0
-533 28 0
534 -533 -33 0
-534 533 0
-534 33 0
535 -910 -532 0
-535 910 0
-535 532 0
536 -4 -800 0
-536 4 0
-536 800 0
537 -536 -865 0
-537 536 0
-537 865 0
538 -911 -535 0
-538 911 0
-538 535 0
539 -44 -1 0
-539 44 0
-539 1 0
540 -539 -27 0
-540 539 0
-540 27 0
541 -912 -538 0
-541 912 0
-541 538 0
542 -14 -698 0
-542 14 0
-542 698 0
543 -542 -732 0
-543 542 0
-543 732 0
544 -913 -541 0
-544 913 0
-544 541 0
545 -37 -700 0
-545 37 0
-545 700 0
546 -545 -19 0
-546 545 0
-546 19 0
547 -914 -544 0
-547 914 0
-547 544 0
548 -113 -813 0
-548 113 0
-548 813 0
549 -915 -547 0
-549 915 0
-549 547 0
550 -724 -698 0
-550 724 0
-550 698 0
551 -550 -5 0
-551 550 0
-551 5 0
552 -916 -549 0
-552 916 0
-552 549 0
553 -45 -700 0
-553 45 0
-553 700 0
554 -553 -738 0
-554 553 0
-554 738 0
555 -917 -552 0
-555 917 0
-555 552 0
556 -763 -27 0
-556 763 0
-556 27 0
557 -556 -732 0
-557 556 0
-557 732 0
558 -918 -555 0
-558 918 0
-558 555 0
559 -18 -754 0
-559 18 0
-559 754 0
560 -559 -804 0
-560 559 0
-560 804 0
561 -919 -558 0
-561 919 0
-561 558 0
562 -804 -724 0
-562 804 0
-562 724 0
563 -562 -12 0
-563 562 0
-563 12 0
564 -920 -561 0
-564 920 0
-564 561 0
565 -783 -2 0
-565 783 0
-565 2 0
566 -565 -43 0
-566 565 0
-566 43 0
567 -921 -564 0
-567 921 0
-567 564 0
568 -39 -735 0
-568 39 0
-568 735 0
569 -568 -789 0
-569 568 0
-569 789 0
570 -922 -567 0
-570 922 0
-570 567 0
571 -21 -706 0
-571 21 0
-571 706 0
572 -571 -813 0
-572 571 0
-572 813 0
573 -923 -570 0
-573 923 0
-573 570 0
574 -744 -13 0
-574 744 0
-574 13 0
575 -574 -722 0
-575 574 0
-575 722 0
576 -924 -573 0
-576 924 0
-576 573 0
577 -41 -800 0
-577 41 0
-577 800 0
578 -577 -12 0
-578 577 0
-578 12 0
579 -925 -576 0
-579 925 0
-579 576 0
580 -813 -700 0
-580 813 0
-580 700 0
581 -580 -37 0
-581 580 0
-581 37 0
582 -926 -579 0
-582 926 0
-582 579 0
583 -14 -704 0
-583 14 0
-583 704 0
584 -583 -789 0
-584 583 0
-584 789 0
585 -927 -582 0
-585 927 0
-585 582 0
586 -27 -5 0
-586 27 0
-586 5 0
587 -586 -3 0
-587 586 0
-587 3 0
588 -928 -585 0
-588 928 0
-588 585 0
589 -704 -6 0
-589 704 0
-589 6 0
590 -589 -767 0
-590 589 0
-590 767 0
591 -929 -588 0
-591 929 0
-591 588 0
592 -25 -1 0
-592 25 0
-592 1 0
593 -592 -739 0
-593 592 0
-593 739 0
594 -930 -591 0
-594 930 0
-594 591 0
595 -757 -1 0
-595 757 0
-595 1 0
596 -595 -15 0
-596 595 0
-596 15 0
597 -931 -594 0
-597 931 0
-597 594 0
598 -16 -709 0
-598 16 0
-598 709 0
599 -598 -12 0
-599 598 0
-599 12 0
600 -932 -597 0
-600 932 0
-600 597 0
601 -744 -706 0
-601 744 0
-601 706 0
602 -601 -758 0
-602 601 0
-602 758 0
603 -933 -600 0
-603 933 0
-603 600 0
604 -43 -789 0
-604 43 0
-604 789 0
605 -604 -710 0
-605 604 0
-605 710 0
606 -934 -603 0
-606 934 0
-606 603 0
607 -40 -789 0
-607 40 0
-607 789 0
608 -607 -38 0
-608 607 0
-608 38 0
609 -935 -606 0
-609 935 0
-609 606 0
610 -24 -14 0
-610 24 0
-610 14 0
611 -610 -28 0
-611 610 0
-611 28 0
612 -936 -609 0
-612 936 0
-612 609 0
613 -791 -18 0
-613 791 0
-613 18 0
614 -613 -700 0
-614 613 0
-614 700 0
615 -937 -612 0
-615 937 0
-615 612 0
616 -454 -28 0
-616 454 0
-616 28 0
617 -938 -615 0
-617 938 0
-617 615 0
618 -757 -735 0
-618 757 0
-618 735 0
619 -618 -48 0
-619 618 0
-619 48 0
620 -939 -617 0
-620 939 0
-620 617 0
621 -772 -7 0
-621 772 0
-621 7 0
622 -621 -727 0
-622 621 0
-622 727 0
623 -940 -620 0
-623 940 0
-623 620 0
624 -36 -24 0
-624 36 0
-624 24 0
625 -624 -801 0
-625 624 0
-625 801 0
626 -941 -623 0
-626 941 0
-626 623 0
627 -17 -10 0
-627 17 0
-627 10 0
628 -627 -758 0
-628 627 0
-628 758 0
629 -942 -626 0
-629 942 0
-629 626 0
630 -20 -698 0
-630 20 0
-630 698 0
631 -630 -11 0
-631 630 0
-631 11 0
632 -943 -629 0
-632 943 0
-632 629 0
633 -26 -18 0
-633 26 0
-633 18 0
634 -633 -722 0
-634 633 0
-634 722 0
635 -944 -632 0
-635 944 0
-635 632 0
636 -35 -28 0
-636 35 0
-636 28 0
637 -636 -865 0
-637 636 0
-637 865 0
638 -945 -635 0
-638 945 0
-638 635 0
639 -4 -1 0
-639 4 0
-639 1 0
640 -639 -11 0
-640 639 0
-640 11 0
641 -946 -638 0
-641 946 0
-641 638 0
642 -801 -765 0
-642 801 0
-642 765 0
643 -642 -47 0
-643 642 0
-643 47 0
644 -947 -641 0
-644 947 0
-644 641 0
645 -22 -17 0
-645 22 0
-645 17 0
646 -645 -3 0
-646 645 0
-646 3 0
647 -948 -644 0
-647 948 0
-647 644 0
648 -757 -712 0
-648 757 0
-648 712 0
649 -648 -19 0
-649 648 0
-649 19 0
650 -949 -647 0
-650 949 0
-650 647 0
651 -714 -13 0
-651 714 0
-651 13 0
652 -651 -11 0
-652 651 0
-652 11 0
653 -950 -650 0
-653 950 0
-653 650 0
654 -754 -13 0
-654 754 0
-654 13 0
655 -654 -12 0
-655 654 0
-655 12 0
656 -951 -653 0
-656 951 0
-656 653 0
657 -18 -14 0
-657 18 0
-657 14 0
658 -657 -722 0
-658 657 0
-658 722 0
659 -952 -656 0
-659 952 0
-659 656 0
660 -31 -13 0
-660 31 0
-660 13 0
661 -660 -763 0
-661 660 0
-661 763 0
662 -953 -659 0
-662 953 0
-662 659 0
663 -39 -724 0
-663 39 0
-663 724 0
664 -663 -6 0
-664 663 0
-664 6 0
665 -954 -662 0
-665 954 0
-665 662 0
666 -36 -741 0
-666 36 0
-666 741 0
667 -666 -27 0
-667 666 0
-667 27 0
668 -955 -665 0
-668 955 0
-668 665 0
669 -765 -741 0
-669 765 0
-669 741 0
670 -669 -774 0
-670 669 0
-670 774 0
671 -956 -668 0
-671 956 0
-671 668 0
672 -741 -14 0
-672 741 0
-672 14 0
673 -672 -758 0
-673 672 0
-673 758 0
674 -957 -671 0
-674 957 0
-674 671 0
675 -38 -704 0
-675 38 0
-675 704 0
676 -675 -12 0
-676 675 0
-676 12 0
677 -958 -674 0
-677 958 0
-677 674 0
678 -804 -14 0
-678 804 0
-678 14 0
679 -678 -3 0
-679 678 0
-679 3 0
680 -959 -677 0
-680 959 0
-680 677 0
681 -804 -765 0
-681 804 0
-681 765 0
682 -681 -38 0
-682 681 0
-682 38 0
683 -960 -680 0
-683 960 0
-683 680 0
684 -80 -14 0
-684 80 0
-684 14 0
685 -961 -683 0
-685 961 0
-685 683 0
686 -727 -1 0
-686 727 0
-686 1 0
687 -686 -738 0
-687 686 0
-687 738 0
688 -962 -685 0
-688 962 0
-688 685 0
689 -36 -14 0
-689 36 0
-689 14 0
690 -689 -714 0
-690 689 0
-690 714 0
691 -963 -688 0
-691 963 0
-691 688 0
692 -767 -30 0
-692 767 0
-692 30 0
693 -692 -842 0
-693 692 0
-693 842 0
694 -964 -691 0
-694 964 0
-694 691 0
695 -39 -14 0
-695 39 0
-695 14 0
696 -695 -6 0
-696 695 0
-696 6 0
697 -965 -694 0
-697 965 0
-697 694 0
-698 -2 0
698 2 0
-699 -3 0
699 3 0
-700 -4 0
700 4 0
-701 -6 0
701 6 0
-702 -54 0
702 54 0
-703 -52 0
703 52 0
-704 -7 0
704 7 0
-705 -57 0
705 57 0
-706 -10 0
706 10 0
-707 -12 0
707 12 0
-708 -60 0
708 60 0
-709 -13 0
709 13 0
-710 -15 0
710 15 0
-711 -63 0
711 63 0
-712 -16 0
712 16 0
-713 -66 0
713 66 0
-714 -18 0
714 18 0
-715 -19 0
715 19 0
-716 -69 0
716 69 0
-717 -17 0
717 17 0
-718 -72 0
718 72 0
-719 -20 0
719 20 0
-720 -22 0
720 22 0
-721 -75 0
721 75 0
-722 -9 0
722 9 0
-723 -78 0
723 78 0
-724 -25 0
724 25 0
-725 -24 0
725 24 0
-726 -81 0
726 81 0
-727 -27 0
727 27 0
-728 -84 0
728 84 0
-729 -30 0
729 30 0
-730 -87 0
730 87 0
-731 -90 0
731 90 0
-732 -33 0
732 33 0
-733 -93 0
733 93 0
-734 -96 0
734 96 0
-735 -35 0
735 35 0
-736 -11 0
736 11 0
-737 -99 0
737 99 0
-738 -37 0
738 37 0
-739 -36 0
739 36 0
-740 -102 0
740 102 0
-741 -21 0
741 21 0
-742 -105 0
742 105 0
-743 -108 0
743 108 0
-744 -40 0
744 40 0
-745 -111 0
745 111 0
-746 -114 0
746 114 0
-747 -117 0
747 117 0
-748 -5 0
748 5 0
-749 -38 0
749 38 0
-750 -120 0
750 120 0
-751 -123 0
751 123 0
-752 -126 0
752 126 0
-753 -129 0
753 129 0
-754 -14 0
754 14 0
-755 -132 0
755 132 0
-756 -135 0
756 135 0
-757 -42 0
757 42 0
-758 -32 0
758 32 0
-759 -138 0
759 138 0
-760 -141 0
760 141 0
-761 -144 0
761 144 0
-762 -147 0
762 147 0
-763 -45 0
763 45 0
-764 -150 0
764 150 0
-765 -31 0
765 31 0
-766 -153 0
766 153 0
-767 -46 0
767 46 0
-768 -156 0
768 156 0
-769 -159 0
769 159 0
-770 -162 0
770 162 0
-771 -165 0
771 165 0
-772 -39 0
772 39 0
-773 -168 0
773 168 0
-774 -34 0
774 34 0
-775 -171 0
775 171 0
-776 -174 0
776 174 0
-777 -177 0
777 177 0
-778 -180 0
778 180 0
-779 -183 0
779 183 0
-780 -44 0
780 44 0
-781 -186 0
781 186 0
-782 -189 0
782 189 0
-783 -29 0
783 29 0
-784 -23 0
784 23 0
-785 -192 0
785 192 0
-786 -195 0
786 195 0
-787 -198 0
787 198 0
-788 -201 0
788 201 0
-789 -28 0
789 28 0
-790 -204 0
790 204 0
-791 -47 0
791 47 0
-792 -207 0
792 207 0
-793 -48 0
793 48 0
-794 -210 0
794 210 0
-795 -213 0
795 213 0
-796 -216 0
796 216 0
-797 -219 0
797 219 0
-798 -222 0
798 222 0
-799 -225 0
799 225 0
-800 -1 0
800 1 0
-801 -41 0
801 41 0
-802 -228 0
802 228 0
-803 -231 0
803 231 0
-804 -49 0
804 49 0
-805 -234 0
805 234 0
-806 -237 0
806 237 0
-807 -240 0
807 240 0
-808 -243 0
808 243 0
-809 -246 0
809 246 0
-810 -249 0
810 249 0
-811 -8 0
811 8 0
-812 -252 0
812 252 0
-813 -50 0
813 50 0
-814 -255 0
814 255 0
-815 -258 0
815 258 0
-816 -261 0
816 261 0
-817 -264 0
817 264 0
-818 -267 0
818 267 0
-819 -270 0
819 270 0
-820 -273 0
820 273 0
-821 -276 0
821 276 0
-822 -279 0
822 279 0
-823 -282 0
823 282 0
-824 -285 0
824 285 0
-825 -288 0
825 288 0
-826 -291 0
826 291 0
-827 -294 0
827 294 0
-828 -297 0
828 297 0
-829 -300 0
829 300 0
-830 -303 0
830 303 0
-831 -306 0
831 306 0
-832 -309 0
832 309 0
-833 -312 0
833 312 0
-834 -315 0
834 315 0
-835 -318 0
835 318 0
-836 -321 0
836 321 0
-837 -324 0
837 324 0
-838 -327 0
838 327 0
-839 -330 0
839 330 0
-840 -333 0
840 333 0
-841 -336 0
841 336 0
-842 -43 0
842 43 0
-843 -339 0
843 339 0
-844 -342 0
844 342 0
-845 -345 0
845 345 0
-846 -348 0
846 348 0
-847 -351 0
847 351 0
-848 -354 0
848 354 0
-849 -357 0
849 357 0
-850 -360 0
850 360 0
-851 -363 0
851 363 0
-852 -366 0
852 366 0
-853 -369 0
853 369 0
-854 -371 0
854 371 0
-855 -374 0
855 374 0
-856 -377 0
856 377 0
-857 -380 0
857 380 0
-858 -383 0
858 383 0
-859 -386 0
859 386 0
-860 -389 0
860 389 0
-861 -392 0
861 392 0
-862 -395 0
862 395 0
-863 -398 0
863 398 0
-864 -401 0
864 401 0
-865 -26 0
865 26 0
-866 -404 0
866 404 0
-867 -407 0
867 407 0
-868 -410 0
868 410 0
-869 -413 0
869 413 0
-870 -416 0
870 416 0
-871 -419 0
871 419 0
-872 -422 0
872 422 0
-873 -425 0
873 425 0
-874 -428 0
874 428 0
-875 -431 0
875 431 0
-876 -434 0
876 434 0
-877 -437 0
877 437 0
-878 -440 0
878 440 0
-879 -443 0
879 443 0
-880 -446 0
880 446 0
-881 -449 0
881 449 0
-882 -452 0
882 452 0
-883 -455 0
883 455 0
-884 -458 0
884 458 0
-885 -461 0
885 461 0
-886 -464 0
886 464 0
-887 -467 0
887 467 0
-888 -470 0
888 470 0
-889 -472 0
889 472 0
-890 -475 0
890 475 0
-891 -478 0
891 478 0
-892 -481 0
892 481 0
-893 -484 0
893 484 0
-894 -487 0
894 487 0
-895 -489 0
895 489 0
-896 -492 0
896 492 0
-897 -495 0
897 495 0
-898 -498 0
898 498 0
-899 -501 0
899 501 0
-900 -504 0
900 504 0
-901 -507 0
901 507 0
-902 -510 0
902 510 0
-903 -513 0
903 513 0
-904 -516 0
904 516 0
-905 -519 0
905 519 0
-906 -522 0
906 522 0
-907 -525 0
907 525 0
-908 -528 0
908 528 0
-909 -531 0
909 531 0
-910 -534 0
910 534 0
-911 -537 0
911 537 0
-912 -540 0
912 540 0
-913 -543 0
913 543 0
-914 -546 0
914 546 0
-915 -548 0
915 548 0
-916 -551 0
916 551 0
-917 -554 0
917 554 0
-918 -557 0
918 557 0
-919 -560 0
919 560 0
-920 -563 0
920 563 0
-921 -566 0
921 566 0
-922 -569 0
922 569 0
-923 -572 0
923 572 0
-924 -575 0
924 575 0
-925 -578 0
925 578 0
-926 -581 0
926 581 0
-927 -584 0
927 584 0
-928 -587 0
928 587 0
-929 -590 0
929 590 0
-930 -593 0
930 593 0
-931 -596 0
931 596 0
-932 -599 0
932 599 0
-933 -602 0
933 602 0
-934 -605 0
934 605 0
-935 -608 0
935 608 0
-936 -611 0
936 611 0
-937 -614 0
937 614 0
-938 -616 0
938 616 0
-939 -619 0
939 619 0
-940 -622 0
940 622 0
-941 -625 0
941 625 0
-942 -628 0
942 628 0
-943 -631 0
943 631 0
-944 -634 0
944 634 0
-945 -637 0
945 637 0
-946 -640 0
946 640 0
-947 -643 0
947 643 0
-948 -646 0
948 646 0
-949 -649 0
949 649 0
-950 -652 0
950 652 0
-951 -655 0
951 655 0
-952 -658 0
952 658 0
-953 -661 0
953 661 0
-954 -664 0
954 664 0
-955 -667 0
955 667 0
-956 -670 0
956 670 0
-957 -673 0
957 673 0
-958 -676 0
958 676 0
-959 -679 0
959 679 0
-960 -682 0
960 682 0
-961 -684 0
961 684 0
-962 -687 0
962 687 0
-963 -690 0
963 690 0
-964 -693 0
964 693 0
-965 -696 0
965 696 0
697 0
